set ADUNITS := tv_mins mag_pages radio_mins;

param: 			reach 	cost	person_weeks	min_buy	:=
	tv_mins		1.8		20000	1				10	
	mag_pages	1		10000	3				2 
	radio_mins	0.25	2000	0.7				0 ;

	param dollars 		:= 1000000;
	param talent_time	:= 100;